


========================================================================================================
                                           S U B C A S E  1
  ANALYSIS: STATICS
     TITLE: 
  SUBTITLE: 
     LABEL: 
========================================================================================================



     TITLE:                                                                  SUBCASE: 1
  SUBTITLE:                                                                 ANALYSIS: STATICS
     LABEL:                                                             SUPERELEMENT: 0
                                         D I S P L A C E M E N T S

      POINT ID.   TYPE          T1             T2             T3             R1             R2             R3
             1      G      7.728719E-06   0.000000E+00  -3.041190E-05   0.000000E+00   0.000000E+00   0.000000E+00
             2      G     -7.378606E-06   0.000000E+00  -2.872140E-05   0.000000E+00   0.000000E+00   0.000000E+00
             3      G      5.642384E-06   0.000000E+00  -1.091896E-05   0.000000E+00   0.000000E+00   0.000000E+00
             4      G     -5.688110E-06   0.000000E+00  -1.109402E-05   0.000000E+00   0.000000E+00   0.000000E+00
             5      G      0.000000E+00   0.000000E+00   0.000000E+00   0.000000E+00   0.000000E+00   0.000000E+00
             6      G      0.000000E+00   0.000000E+00   0.000000E+00   0.000000E+00   0.000000E+00   0.000000E+00


     TITLE:                                                                  SUBCASE: 1
  SUBTITLE:                                                                 ANALYSIS: STATICS
     LABEL:                                                             SUPERELEMENT: 0
                       S I N G L E    P O I N T    C O N S T R A I N T    F O R C E S

      POINT ID.   TYPE          T1             T2             T3             R1             R2             R3
             1      G      0.000000E+00   0.000000E+00   0.000000E+00   0.000000E+00   0.000000E+00   0.000000E+00
             2      G      0.000000E+00   0.000000E+00   0.000000E+00   0.000000E+00   0.000000E+00   0.000000E+00
             3      G      0.000000E+00   0.000000E+00   0.000000E+00   0.000000E+00   0.000000E+00   0.000000E+00
             4      G      0.000000E+00   0.000000E+00   0.000000E+00   0.000000E+00   0.000000E+00   0.000000E+00
             5      G     -2.000000E+00   0.000000E+00   5.060534E-01   0.000000E+00   0.000000E+00   0.000000E+00
             6      G      2.000000E+00   0.000000E+00   4.939466E-01   0.000000E+00   0.000000E+00   0.000000E+00


     TITLE:                                                                  SUBCASE: 1
  SUBTITLE:                                                                 ANALYSIS: STATICS
     LABEL:                                                             SUPERELEMENT: 0


   F O R C E S   I N   R O D   E L E M E N T S     ( C R O D )
       ELEMENT       AXIAL        TORQUE
           ID.       FORCE
             1   1.493947E+00   0.000000E+00
             2   5.524035E-01   0.000000E+00
             3  -1.506053E+00   0.000000E+00
             4  -4.475965E-01   0.000000E+00
             5   4.635013E-02   0.000000E+00
             6  -4.475965E-01   0.000000E+00
             7   7.156676E-01   0.000000E+00
             8  -6.985460E-01   0.000000E+00
             9   6.329970E-01   0.000000E+00
            10  -7.812166E-01   0.000000E+00


     TITLE:                                                                  SUBCASE: 1
  SUBTITLE:                                                                 ANALYSIS: STATICS
     LABEL:                                                             SUPERELEMENT: 0


   S T R E S S E S   I N   R O D   E L E M E N T S      ( C R O D )
       ELEMENT       AXIAL        TORSIONAL
           ID.      STRESS         STRESS
             1   1.567329E-01   0.000000E+00
             2   5.795375E-02   0.000000E+00
             3  -1.580030E-01   0.000000E+00
             4  -4.695823E-02   0.000000E+00
             5   4.862684E-03   0.000000E+00
             6  -4.695823E-02   0.000000E+00
             7   7.508210E-02   0.000000E+00
             8  -7.328584E-02   0.000000E+00
             9   6.640897E-02   0.000000E+00
            10  -8.195898E-02   0.000000E+00



========================================================================================================
                                           S U B C A S E  2
  ANALYSIS: MODES
     TITLE: 
  SUBTITLE: 
     LABEL: 
========================================================================================================

                                    R E A L   E I G E N V A L U E S
   MODE          EIGENVALUE            RADIANS             CYCLES            GENERALIZED         GENERALIZED
    NO.                                                                         MASS              STIFFNESS
        1        3.161967E+03        5.623137E+01        8.949501E+00        1.000000E+00        3.161967E+03
        2        2.868724E+04        1.693731E+02        2.695656E+01        1.000000E+00        2.868724E+04
        3        2.931567E+04        1.712182E+02        2.725022E+01        1.000000E+00        2.931567E+04
        4        9.842269E+04        3.137239E+02        4.993071E+01        1.000000E+00        9.842269E+04
        5        1.277471E+05        3.574173E+02        5.688473E+01        1.000000E+00        1.277471E+05
        6        1.566727E+05        3.958190E+02        6.299655E+01        1.000000E+00        1.566727E+05
        7        1.672252E+05        4.089318E+02        6.508352E+01        1.000000E+00        1.672252E+05
        8        2.348492E+05        4.846124E+02        7.712846E+01        1.000000E+00        2.348492E+05


     TITLE:                                                                  SUBCASE: 2
  SUBTITLE:                                                                 ANALYSIS: MODES
     LABEL:                                                             SUPERELEMENT: 0
      MODE: 1
 FREQUENCY: 8.949501E+00 Hz
                                         D I S P L A C E M E N T S

      POINT ID.   TYPE          T1             T2             T3             R1             R2             R3
             1      G     -7.845801E-02   0.000000E+00   3.035007E-01   0.000000E+00   0.000000E+00   0.000000E+00
             2      G      7.845801E-02   0.000000E+00   3.035007E-01   0.000000E+00   0.000000E+00   0.000000E+00
             3      G     -5.974904E-02   0.000000E+00   1.232835E-01   0.000000E+00   0.000000E+00   0.000000E+00
             4      G      5.974904E-02   0.000000E+00   1.232835E-01   0.000000E+00   0.000000E+00   0.000000E+00
             5      G      0.000000E+00   0.000000E+00   0.000000E+00   0.000000E+00   0.000000E+00   0.000000E+00
             6      G      0.000000E+00   0.000000E+00   0.000000E+00   0.000000E+00   0.000000E+00   0.000000E+00


     TITLE:                                                                  SUBCASE: 2
  SUBTITLE:                                                                 ANALYSIS: MODES
     LABEL:                                                             SUPERELEMENT: 0
      MODE: 2
 FREQUENCY: 2.695656E+01 Hz
                                         D I S P L A C E M E N T S

      POINT ID.   TYPE          T1             T2             T3             R1             R2             R3
             1      G     -2.841792E-01   0.000000E+00   1.158830E-02   0.000000E+00   0.000000E+00   0.000000E+00
             2      G     -2.841792E-01   0.000000E+00  -1.158830E-02   0.000000E+00   0.000000E+00   0.000000E+00
             3      G     -1.768504E-01   0.000000E+00   4.505307E-02   0.000000E+00   0.000000E+00   0.000000E+00
             4      G     -1.768504E-01   0.000000E+00  -4.505307E-02   0.000000E+00   0.000000E+00   0.000000E+00
             5      G      0.000000E+00   0.000000E+00   0.000000E+00   0.000000E+00   0.000000E+00   0.000000E+00
             6      G      0.000000E+00   0.000000E+00   0.000000E+00   0.000000E+00   0.000000E+00   0.000000E+00


     TITLE:                                                                  SUBCASE: 2
  SUBTITLE:                                                                 ANALYSIS: MODES
     LABEL:                                                             SUPERELEMENT: 0
      MODE: 3
 FREQUENCY: 2.725022E+01 Hz
                                         D I S P L A C E M E N T S

      POINT ID.   TYPE          T1             T2             T3             R1             R2             R3
             1      G     -1.741142E-01   0.000000E+00   7.026725E-02   0.000000E+00   0.000000E+00   0.000000E+00
             2      G      1.741142E-01   0.000000E+00   7.026725E-02   0.000000E+00   0.000000E+00   0.000000E+00
             3      G     -6.393963E-02   0.000000E+00  -2.566643E-01   0.000000E+00   0.000000E+00   0.000000E+00
             4      G      6.393963E-02   0.000000E+00  -2.566643E-01   0.000000E+00   0.000000E+00   0.000000E+00
             5      G      0.000000E+00   0.000000E+00   0.000000E+00   0.000000E+00   0.000000E+00   0.000000E+00
             6      G      0.000000E+00   0.000000E+00   0.000000E+00   0.000000E+00   0.000000E+00   0.000000E+00


     TITLE:                                                                  SUBCASE: 2
  SUBTITLE:                                                                 ANALYSIS: MODES
     LABEL:                                                             SUPERELEMENT: 0
      MODE: 4
 FREQUENCY: 4.993071E+01 Hz
                                         D I S P L A C E M E N T S

      POINT ID.   TYPE          T1             T2             T3             R1             R2             R3
             1      G      2.504911E-01   0.000000E+00   1.615080E-01   0.000000E+00   0.000000E+00   0.000000E+00
             2      G     -2.504911E-01   0.000000E+00   1.615080E-01   0.000000E+00   0.000000E+00   0.000000E+00
             3      G      1.183409E-01   0.000000E+00  -1.303786E-01   0.000000E+00   0.000000E+00   0.000000E+00
             4      G     -1.183409E-01   0.000000E+00  -1.303786E-01   0.000000E+00   0.000000E+00   0.000000E+00
             5      G      0.000000E+00   0.000000E+00   0.000000E+00   0.000000E+00   0.000000E+00   0.000000E+00
             6      G      0.000000E+00   0.000000E+00   0.000000E+00   0.000000E+00   0.000000E+00   0.000000E+00


     TITLE:                                                                  SUBCASE: 2
  SUBTITLE:                                                                 ANALYSIS: MODES
     LABEL:                                                             SUPERELEMENT: 0
      MODE: 5
 FREQUENCY: 5.688473E+01 Hz
                                         D I S P L A C E M E N T S

      POINT ID.   TYPE          T1             T2             T3             R1             R2             R3
             1      G      5.916117E-02   0.000000E+00  -2.489878E-01   0.000000E+00   0.000000E+00   0.000000E+00
             2      G      5.916117E-02   0.000000E+00   2.489878E-01   0.000000E+00   0.000000E+00   0.000000E+00
             3      G     -3.214634E-02   0.000000E+00   2.173610E-01   0.000000E+00   0.000000E+00   0.000000E+00
             4      G     -3.214634E-02   0.000000E+00  -2.173610E-01   0.000000E+00   0.000000E+00   0.000000E+00
             5      G      0.000000E+00   0.000000E+00   0.000000E+00   0.000000E+00   0.000000E+00   0.000000E+00
             6      G      0.000000E+00   0.000000E+00   0.000000E+00   0.000000E+00   0.000000E+00   0.000000E+00


     TITLE:                                                                  SUBCASE: 2
  SUBTITLE:                                                                 ANALYSIS: MODES
     LABEL:                                                             SUPERELEMENT: 0
      MODE: 6
 FREQUENCY: 6.299655E+01 Hz
                                         D I S P L A C E M E N T S

      POINT ID.   TYPE          T1             T2             T3             R1             R2             R3
             1      G      7.334830E-02   0.000000E+00  -1.870209E-01   0.000000E+00   0.000000E+00   0.000000E+00
             2      G      7.334830E-02   0.000000E+00   1.870209E-01   0.000000E+00   0.000000E+00   0.000000E+00
             3      G     -1.585302E-01   0.000000E+00  -2.109429E-01   0.000000E+00   0.000000E+00   0.000000E+00
             4      G     -1.585302E-01   0.000000E+00   2.109429E-01   0.000000E+00   0.000000E+00   0.000000E+00
             5      G      0.000000E+00   0.000000E+00   0.000000E+00   0.000000E+00   0.000000E+00   0.000000E+00
             6      G      0.000000E+00   0.000000E+00   0.000000E+00   0.000000E+00   0.000000E+00   0.000000E+00


     TITLE:                                                                  SUBCASE: 2
  SUBTITLE:                                                                 ANALYSIS: MODES
     LABEL:                                                             SUPERELEMENT: 0
      MODE: 7
 FREQUENCY: 6.508352E+01 Hz
                                         D I S P L A C E M E N T S

      POINT ID.   TYPE          T1             T2             T3             R1             R2             R3
             1      G     -1.627640E-01   0.000000E+00   1.705101E-02   0.000000E+00   0.000000E+00   0.000000E+00
             2      G      1.627640E-01   0.000000E+00   1.705101E-02   0.000000E+00   0.000000E+00   0.000000E+00
             3      G      2.826192E-01   0.000000E+00   2.256123E-02   0.000000E+00   0.000000E+00   0.000000E+00
             4      G     -2.826192E-01   0.000000E+00   2.256123E-02   0.000000E+00   0.000000E+00   0.000000E+00
             5      G      0.000000E+00   0.000000E+00   0.000000E+00   0.000000E+00   0.000000E+00   0.000000E+00
             6      G      0.000000E+00   0.000000E+00   0.000000E+00   0.000000E+00   0.000000E+00   0.000000E+00


     TITLE:                                                                  SUBCASE: 2
  SUBTITLE:                                                                 ANALYSIS: MODES
     LABEL:                                                             SUPERELEMENT: 0
      MODE: 8
 FREQUENCY: 7.712846E+01 Hz
                                         D I S P L A C E M E N T S

      POINT ID.   TYPE          T1             T2             T3             R1             R2             R3
             1      G     -1.901943E-01   0.000000E+00  -1.760851E-01   0.000000E+00   0.000000E+00   0.000000E+00
             2      G     -1.901943E-01   0.000000E+00   1.760851E-01   0.000000E+00   0.000000E+00   0.000000E+00
             3      G      2.101839E-01   0.000000E+00  -8.818611E-02   0.000000E+00   0.000000E+00   0.000000E+00
             4      G      2.101839E-01   0.000000E+00   8.818611E-02   0.000000E+00   0.000000E+00   0.000000E+00
             5      G      0.000000E+00   0.000000E+00   0.000000E+00   0.000000E+00   0.000000E+00   0.000000E+00
             6      G      0.000000E+00   0.000000E+00   0.000000E+00   0.000000E+00   0.000000E+00   0.000000E+00


     TITLE:                                                                  SUBCASE: 2
  SUBTITLE:                                                                 ANALYSIS: MODES
     LABEL:                                                             SUPERELEMENT: 0
      MODE: 1
 FREQUENCY: 8.949501E+00 Hz
                       S I N G L E    P O I N T    C O N S T R A I N T    F O R C E S

      POINT ID.   TYPE          T1             T2             T3             R1             R2             R3
             1      G      0.000000E+00   0.000000E+00   0.000000E+00   0.000000E+00   0.000000E+00   0.000000E+00
             2      G      0.000000E+00   0.000000E+00   0.000000E+00   0.000000E+00   0.000000E+00   0.000000E+00
             3      G      0.000000E+00   0.000000E+00   0.000000E+00   0.000000E+00   0.000000E+00   0.000000E+00
             4      G      0.000000E+00   0.000000E+00   0.000000E+00   0.000000E+00   0.000000E+00   0.000000E+00
             5      G      2.176742E+04   0.000000E+00  -5.947533E+03   0.000000E+00   0.000000E+00   0.000000E+00
             6      G     -2.176742E+04   0.000000E+00  -5.947533E+03   0.000000E+00   0.000000E+00   0.000000E+00


     TITLE:                                                                  SUBCASE: 2
  SUBTITLE:                                                                 ANALYSIS: MODES
     LABEL:                                                             SUPERELEMENT: 0
      MODE: 2
 FREQUENCY: 2.695656E+01 Hz
                       S I N G L E    P O I N T    C O N S T R A I N T    F O R C E S

      POINT ID.   TYPE          T1             T2             T3             R1             R2             R3
             1      G      0.000000E+00   0.000000E+00   0.000000E+00   0.000000E+00   0.000000E+00   0.000000E+00
             2      G      0.000000E+00   0.000000E+00   0.000000E+00   0.000000E+00   0.000000E+00   0.000000E+00
             3      G      0.000000E+00   0.000000E+00   0.000000E+00   0.000000E+00   0.000000E+00   0.000000E+00
             4      G      0.000000E+00   0.000000E+00   0.000000E+00   0.000000E+00   0.000000E+00   0.000000E+00
             5      G      5.916278E+04   0.000000E+00  -1.233770E+04   0.000000E+00   0.000000E+00   0.000000E+00
             6      G      5.916278E+04   0.000000E+00   1.233770E+04   0.000000E+00   0.000000E+00   0.000000E+00


     TITLE:                                                                  SUBCASE: 2
  SUBTITLE:                                                                 ANALYSIS: MODES
     LABEL:                                                             SUPERELEMENT: 0
      MODE: 3
 FREQUENCY: 2.725022E+01 Hz
                       S I N G L E    P O I N T    C O N S T R A I N T    F O R C E S

      POINT ID.   TYPE          T1             T2             T3             R1             R2             R3
             1      G      0.000000E+00   0.000000E+00   0.000000E+00   0.000000E+00   0.000000E+00   0.000000E+00
             2      G      0.000000E+00   0.000000E+00   0.000000E+00   0.000000E+00   0.000000E+00   0.000000E+00
             3      G      0.000000E+00   0.000000E+00   0.000000E+00   0.000000E+00   0.000000E+00   0.000000E+00
             4      G      0.000000E+00   0.000000E+00   0.000000E+00   0.000000E+00   0.000000E+00   0.000000E+00
             5      G     -1.308265E+04   0.000000E+00   3.001209E+04   0.000000E+00   0.000000E+00   0.000000E+00
             6      G      1.308265E+04   0.000000E+00   3.001209E+04   0.000000E+00   0.000000E+00   0.000000E+00


     TITLE:                                                                  SUBCASE: 2
  SUBTITLE:                                                                 ANALYSIS: MODES
     LABEL:                                                             SUPERELEMENT: 0
      MODE: 4
 FREQUENCY: 4.993071E+01 Hz
                       S I N G L E    P O I N T    C O N S T R A I N T    F O R C E S

      POINT ID.   TYPE          T1             T2             T3             R1             R2             R3
             1      G      0.000000E+00   0.000000E+00   0.000000E+00   0.000000E+00   0.000000E+00   0.000000E+00
             2      G      0.000000E+00   0.000000E+00   0.000000E+00   0.000000E+00   0.000000E+00   0.000000E+00
             3      G      0.000000E+00   0.000000E+00   0.000000E+00   0.000000E+00   0.000000E+00   0.000000E+00
             4      G      0.000000E+00   0.000000E+00   0.000000E+00   0.000000E+00   0.000000E+00   0.000000E+00
             5      G     -3.246025E+04   0.000000E+00   1.126867E+03   0.000000E+00   0.000000E+00   0.000000E+00
             6      G      3.246025E+04   0.000000E+00   1.126867E+03   0.000000E+00   0.000000E+00   0.000000E+00


     TITLE:                                                                  SUBCASE: 2
  SUBTITLE:                                                                 ANALYSIS: MODES
     LABEL:                                                             SUPERELEMENT: 0
      MODE: 5
 FREQUENCY: 5.688473E+01 Hz
                       S I N G L E    P O I N T    C O N S T R A I N T    F O R C E S

      POINT ID.   TYPE          T1             T2             T3             R1             R2             R3
             1      G      0.000000E+00   0.000000E+00   0.000000E+00   0.000000E+00   0.000000E+00   0.000000E+00
             2      G      0.000000E+00   0.000000E+00   0.000000E+00   0.000000E+00   0.000000E+00   0.000000E+00
             3      G      0.000000E+00   0.000000E+00   0.000000E+00   0.000000E+00   0.000000E+00   0.000000E+00
             4      G      0.000000E+00   0.000000E+00   0.000000E+00   0.000000E+00   0.000000E+00   0.000000E+00
             5      G     -8.826693E+03   0.000000E+00   1.733815E+04   0.000000E+00   0.000000E+00   0.000000E+00
             6      G     -8.826693E+03   0.000000E+00  -1.733815E+04   0.000000E+00   0.000000E+00   0.000000E+00


     TITLE:                                                                  SUBCASE: 2
  SUBTITLE:                                                                 ANALYSIS: MODES
     LABEL:                                                             SUPERELEMENT: 0
      MODE: 6
 FREQUENCY: 6.299655E+01 Hz
                       S I N G L E    P O I N T    C O N S T R A I N T    F O R C E S

      POINT ID.   TYPE          T1             T2             T3             R1             R2             R3
             1      G      0.000000E+00   0.000000E+00   0.000000E+00   0.000000E+00   0.000000E+00   0.000000E+00
             2      G      0.000000E+00   0.000000E+00   0.000000E+00   0.000000E+00   0.000000E+00   0.000000E+00
             3      G      0.000000E+00   0.000000E+00   0.000000E+00   0.000000E+00   0.000000E+00   0.000000E+00
             4      G      0.000000E+00   0.000000E+00   0.000000E+00   0.000000E+00   0.000000E+00   0.000000E+00
             5      G      7.656117E+04   0.000000E+00  -3.458679E+04   0.000000E+00   0.000000E+00   0.000000E+00
             6      G      7.656117E+04   0.000000E+00   3.458679E+04   0.000000E+00   0.000000E+00   0.000000E+00


     TITLE:                                                                  SUBCASE: 2
  SUBTITLE:                                                                 ANALYSIS: MODES
     LABEL:                                                             SUPERELEMENT: 0
      MODE: 7
 FREQUENCY: 6.508352E+01 Hz
                       S I N G L E    P O I N T    C O N S T R A I N T    F O R C E S

      POINT ID.   TYPE          T1             T2             T3             R1             R2             R3
             1      G      0.000000E+00   0.000000E+00   0.000000E+00   0.000000E+00   0.000000E+00   0.000000E+00
             2      G      0.000000E+00   0.000000E+00   0.000000E+00   0.000000E+00   0.000000E+00   0.000000E+00
             3      G      0.000000E+00   0.000000E+00   0.000000E+00   0.000000E+00   0.000000E+00   0.000000E+00
             4      G      0.000000E+00   0.000000E+00   0.000000E+00   0.000000E+00   0.000000E+00   0.000000E+00
             5      G     -4.626144E+04   0.000000E+00  -2.856828E+04   0.000000E+00   0.000000E+00   0.000000E+00
             6      G      4.626144E+04   0.000000E+00  -2.856828E+04   0.000000E+00   0.000000E+00   0.000000E+00


     TITLE:                                                                  SUBCASE: 2
  SUBTITLE:                                                                 ANALYSIS: MODES
     LABEL:                                                             SUPERELEMENT: 0
      MODE: 8
 FREQUENCY: 7.712846E+01 Hz
                       S I N G L E    P O I N T    C O N S T R A I N T    F O R C E S

      POINT ID.   TYPE          T1             T2             T3             R1             R2             R3
             1      G      0.000000E+00   0.000000E+00   0.000000E+00   0.000000E+00   0.000000E+00   0.000000E+00
             2      G      0.000000E+00   0.000000E+00   0.000000E+00   0.000000E+00   0.000000E+00   0.000000E+00
             3      G      0.000000E+00   0.000000E+00   0.000000E+00   0.000000E+00   0.000000E+00   0.000000E+00
             4      G      0.000000E+00   0.000000E+00   0.000000E+00   0.000000E+00   0.000000E+00   0.000000E+00
             5      G     -6.707119E+04   0.000000E+00   1.142035E+04   0.000000E+00   0.000000E+00   0.000000E+00
             6      G     -6.707119E+04   0.000000E+00  -1.142035E+04   0.000000E+00   0.000000E+00   0.000000E+00


     TITLE:                                                                  SUBCASE: 2
  SUBTITLE:                                                                 ANALYSIS: MODES
     LABEL:                                                             SUPERELEMENT: 0
      MODE: 1
 FREQUENCY: 8.949501E+00 Hz


   F O R C E S   I N   R O D   E L E M E N T S     ( C R O D )
       ELEMENT       AXIAL        TORQUE
           ID.       FORCE
             1  -1.581989E+04   0.000000E+00
             2  -4.682509E+04   0.000000E+00
             3  -1.692944E+04   0.000000E+00
             4   3.133338E+04   0.000000E+00
             5  -8.511459E+03   0.000000E+00
             6  -4.197438E+04   0.000000E+00
             7   7.482972E+04   0.000000E+00
             8   5.565085E+04   0.000000E+00
             9  -4.953616E+03   0.000000E+00
            10  -2.841767E+04   0.000000E+00


     TITLE:                                                                  SUBCASE: 2
  SUBTITLE:                                                                 ANALYSIS: MODES
     LABEL:                                                             SUPERELEMENT: 0
      MODE: 2
 FREQUENCY: 2.695656E+01 Hz


   F O R C E S   I N   R O D   E L E M E N T S     ( C R O D )
       ELEMENT       AXIAL        TORQUE
           ID.       FORCE
             1  -2.917116E+04   0.000000E+00
             2   3.498971E+04   0.000000E+00
             3   2.417569E+04   0.000000E+00
             4   6.139497E+04   0.000000E+00
             5  -1.179251E+05   0.000000E+00
             6  -1.060090E+05   0.000000E+00
             7   1.581989E+04   0.000000E+00
             8  -4.682509E+04   0.000000E+00
             9   1.692944E+04   0.000000E+00
            10  -3.133338E+04   0.000000E+00


     TITLE:                                                                  SUBCASE: 2
  SUBTITLE:                                                                 ANALYSIS: MODES
     LABEL:                                                             SUPERELEMENT: 0
      MODE: 3
 FREQUENCY: 2.725022E+01 Hz


   F O R C E S   I N   R O D   E L E M E N T S     ( C R O D )
       ELEMENT       AXIAL        TORQUE
           ID.       FORCE
             1  -8.511459E+03   0.000000E+00
             2  -4.197438E+04   0.000000E+00
             3  -7.482972E+04   0.000000E+00
             4   5.565085E+04   0.000000E+00
             5   4.953616E+03   0.000000E+00
             6  -2.841767E+04   0.000000E+00
             7   2.917116E+04   0.000000E+00
             8  -3.498971E+04   0.000000E+00
             9   2.417569E+04   0.000000E+00
            10   6.139497E+04   0.000000E+00


     TITLE:                                                                  SUBCASE: 2
  SUBTITLE:                                                                 ANALYSIS: MODES
     LABEL:                                                             SUPERELEMENT: 0
      MODE: 4
 FREQUENCY: 4.993071E+01 Hz


   F O R C E S   I N   R O D   E L E M E N T S     ( C R O D )
       ELEMENT       AXIAL        TORQUE
           ID.       FORCE
             1   1.179251E+05   0.000000E+00
             2  -1.060090E+05   0.000000E+00
             3   0.000000E+00   0.000000E+00
             4   2.385760E+04   0.000000E+00
             5   1.455192E-10   0.000000E+00
             6   3.492460E-10   0.000000E+00
             7   1.151023E+05   0.000000E+00
             8  -1.117036E+05   0.000000E+00
             9   3.456080E-11   0.000000E+00
            10  -4.669847E+04   0.000000E+00


     TITLE:                                                                  SUBCASE: 2
  SUBTITLE:                                                                 ANALYSIS: MODES
     LABEL:                                                             SUPERELEMENT: 0
      MODE: 5
 FREQUENCY: 5.688473E+01 Hz


   F O R C E S   I N   R O D   E L E M E N T S     ( C R O D )
       ELEMENT       AXIAL        TORQUE
           ID.       FORCE
             1   0.000000E+00   0.000000E+00
             2   6.136521E+03   0.000000E+00
             3   1.091394E-11   0.000000E+00
             4   8.731149E-11   0.000000E+00
             5  -1.318501E+05   0.000000E+00
             6  -9.903589E+04   0.000000E+00
             7   4.902176E-10   0.000000E+00
             8  -9.324490E+04   0.000000E+00
             9  -8.411082E+03   0.000000E+00
            10  -1.744814E+04   0.000000E+00


     TITLE:                                                                  SUBCASE: 2
  SUBTITLE:                                                                 ANALYSIS: MODES
     LABEL:                                                             SUPERELEMENT: 0
      MODE: 6
 FREQUENCY: 6.299655E+01 Hz


   F O R C E S   I N   R O D   E L E M E N T S     ( C R O D )
       ELEMENT       AXIAL        TORQUE
           ID.       FORCE
             1   4.244351E+04   0.000000E+00
             2   1.593630E+03   0.000000E+00
             3   2.451985E+04   0.000000E+00
             4  -4.891310E+04   0.000000E+00
             5  -4.040166E+04   0.000000E+00
             6   1.615081E+04   0.000000E+00
             7   8.411082E+03   0.000000E+00
             8  -1.744814E+04   0.000000E+00
             9  -4.244351E+04   0.000000E+00
            10  -1.593630E+03   0.000000E+00


     TITLE:                                                                  SUBCASE: 2
  SUBTITLE:                                                                 ANALYSIS: MODES
     LABEL:                                                             SUPERELEMENT: 0
      MODE: 7
 FREQUENCY: 6.508352E+01 Hz


   F O R C E S   I N   R O D   E L E M E N T S     ( C R O D )
       ELEMENT       AXIAL        TORQUE
           ID.       FORCE
             1   2.451985E+04   0.000000E+00
             2  -4.891310E+04   0.000000E+00
             3   4.040166E+04   0.000000E+00
             4   1.615081E+04   0.000000E+00
             5  -5.561565E+03   0.000000E+00
             6  -6.710303E+03   0.000000E+00
             7  -1.176618E+04   0.000000E+00
             8  -8.746998E+04   0.000000E+00
             9   7.900893E+03   0.000000E+00
            10  -2.198740E+04   0.000000E+00


     TITLE:                                                                  SUBCASE: 2
  SUBTITLE:                                                                 ANALYSIS: MODES
     LABEL:                                                             SUPERELEMENT: 0
      MODE: 8
 FREQUENCY: 7.712846E+01 Hz


   F O R C E S   I N   R O D   E L E M E N T S     ( C R O D )
       ELEMENT       AXIAL        TORQUE
           ID.       FORCE
             1  -1.513770E+04   0.000000E+00
             2  -8.799034E+04   0.000000E+00
             3   5.561565E+03   0.000000E+00
             4  -6.710303E+03   0.000000E+00
             5   1.176618E+04   0.000000E+00
             6   8.746998E+04   0.000000E+00
             7   7.900893E+03   0.000000E+00
             8  -2.198740E+04   0.000000E+00
             9   1.513770E+04   0.000000E+00
            10  -8.799034E+04   0.000000E+00


     TITLE:                                                                  SUBCASE: 2
  SUBTITLE:                                                                 ANALYSIS: MODES
     LABEL:                                                             SUPERELEMENT: 0
      MODE: 1
 FREQUENCY: 8.949501E+00 Hz


   S T R E S S E S   I N   R O D   E L E M E N T S      ( C R O D )
       ELEMENT       AXIAL        TORSIONAL
           ID.      STRESS         STRESS
             1  -1.659696E+03   0.000000E+00
             2  -4.912512E+03   0.000000E+00
             3  -1.776101E+03   0.000000E+00
             4   3.287247E+03   0.000000E+00
             5  -8.929540E+02   0.000000E+00
             6  -4.403615E+03   0.000000E+00
             7   7.850534E+03   0.000000E+00
             8   5.838440E+03   0.000000E+00
             9  -5.196937E+02   0.000000E+00
            10  -2.981354E+03   0.000000E+00


     TITLE:                                                                  SUBCASE: 2
  SUBTITLE:                                                                 ANALYSIS: MODES
     LABEL:                                                             SUPERELEMENT: 0
      MODE: 2
 FREQUENCY: 2.695656E+01 Hz


   S T R E S S E S   I N   R O D   E L E M E N T S      ( C R O D )
       ELEMENT       AXIAL        TORSIONAL
           ID.      STRESS         STRESS
             1  -3.060404E+03   0.000000E+00
             2   3.670840E+03   0.000000E+00
             3   2.536320E+03   0.000000E+00
             4   6.441068E+03   0.000000E+00
             5  -1.237176E+04   0.000000E+00
             6  -1.112161E+04   0.000000E+00
             7   1.659696E+03   0.000000E+00
             8  -4.912512E+03   0.000000E+00
             9   1.776101E+03   0.000000E+00
            10  -3.287247E+03   0.000000E+00


     TITLE:                                                                  SUBCASE: 2
  SUBTITLE:                                                                 ANALYSIS: MODES
     LABEL:                                                             SUPERELEMENT: 0
      MODE: 3
 FREQUENCY: 2.725022E+01 Hz


   S T R E S S E S   I N   R O D   E L E M E N T S      ( C R O D )
       ELEMENT       AXIAL        TORSIONAL
           ID.      STRESS         STRESS
             1  -8.929540E+02   0.000000E+00
             2  -4.403615E+03   0.000000E+00
             3  -7.850534E+03   0.000000E+00
             4   5.838440E+03   0.000000E+00
             5   5.196937E+02   0.000000E+00
             6  -2.981354E+03   0.000000E+00
             7   3.060404E+03   0.000000E+00
             8  -3.670840E+03   0.000000E+00
             9   2.536320E+03   0.000000E+00
            10   6.441068E+03   0.000000E+00


     TITLE:                                                                  SUBCASE: 2
  SUBTITLE:                                                                 ANALYSIS: MODES
     LABEL:                                                             SUPERELEMENT: 0
      MODE: 4
 FREQUENCY: 4.993071E+01 Hz


   S T R E S S E S   I N   R O D   E L E M E N T S      ( C R O D )
       ELEMENT       AXIAL        TORSIONAL
           ID.      STRESS         STRESS
             1   1.237176E+04   0.000000E+00
             2  -1.112161E+04   0.000000E+00
             3   0.000000E+00   0.000000E+00
             4   2.502948E+03   0.000000E+00
             5   1.526670E-11   0.000000E+00
             6   3.664009E-11   0.000000E+00
             7   1.207561E+04   0.000000E+00
             8  -1.171905E+04   0.000000E+00
             9   3.625842E-12   0.000000E+00
            10  -4.899228E+03   0.000000E+00


     TITLE:                                                                  SUBCASE: 2
  SUBTITLE:                                                                 ANALYSIS: MODES
     LABEL:                                                             SUPERELEMENT: 0
      MODE: 5
 FREQUENCY: 5.688473E+01 Hz


   S T R E S S E S   I N   R O D   E L E M E N T S      ( C R O D )
       ELEMENT       AXIAL        TORSIONAL
           ID.      STRESS         STRESS
             1   0.000000E+00   0.000000E+00
             2   6.437946E+02   0.000000E+00
             3   1.145003E-12   0.000000E+00
             4   9.160021E-12   0.000000E+00
             5  -1.383266E+04   0.000000E+00
             6  -1.039005E+04   0.000000E+00
             7   5.142970E-11   0.000000E+00
             8  -9.782507E+03   0.000000E+00
             9  -8.824232E+02   0.000000E+00
            10  -1.830519E+03   0.000000E+00


     TITLE:                                                                  SUBCASE: 2
  SUBTITLE:                                                                 ANALYSIS: MODES
     LABEL:                                                             SUPERELEMENT: 0
      MODE: 6
 FREQUENCY: 6.299655E+01 Hz


   S T R E S S E S   I N   R O D   E L E M E N T S      ( C R O D )
       ELEMENT       AXIAL        TORSIONAL
           ID.      STRESS         STRESS
             1   4.452832E+03   0.000000E+00
             2   1.671909E+02   0.000000E+00
             3   2.572426E+03   0.000000E+00
             4  -5.131570E+03   0.000000E+00
             5  -4.238618E+03   0.000000E+00
             6   1.694413E+03   0.000000E+00
             7   8.824232E+02   0.000000E+00
             8  -1.830519E+03   0.000000E+00
             9  -4.452832E+03   0.000000E+00
            10  -1.671909E+02   0.000000E+00


     TITLE:                                                                  SUBCASE: 2
  SUBTITLE:                                                                 ANALYSIS: MODES
     LABEL:                                                             SUPERELEMENT: 0
      MODE: 7
 FREQUENCY: 6.508352E+01 Hz


   S T R E S S E S   I N   R O D   E L E M E N T S      ( C R O D )
       ELEMENT       AXIAL        TORSIONAL
           ID.      STRESS         STRESS
             1   2.572426E+03   0.000000E+00
             2  -5.131570E+03   0.000000E+00
             3   4.238618E+03   0.000000E+00
             4   1.694413E+03   0.000000E+00
             5  -5.834748E+02   0.000000E+00
             6  -7.039912E+02   0.000000E+00
             7  -1.234413E+03   0.000000E+00
             8  -9.176649E+03   0.000000E+00
             9   8.288983E+02   0.000000E+00
            10  -2.306741E+03   0.000000E+00


     TITLE:                                                                  SUBCASE: 2
  SUBTITLE:                                                                 ANALYSIS: MODES
     LABEL:                                                             SUPERELEMENT: 0
      MODE: 8
 FREQUENCY: 7.712846E+01 Hz


   S T R E S S E S   I N   R O D   E L E M E N T S      ( C R O D )
       ELEMENT       AXIAL        TORSIONAL
           ID.      STRESS         STRESS
             1  -1.588126E+03   0.000000E+00
             2  -9.231241E+03   0.000000E+00
             3   5.834748E+02   0.000000E+00
             4  -7.039912E+02   0.000000E+00
             5   1.234413E+03   0.000000E+00
             6   9.176649E+03   0.000000E+00
             7   8.288983E+02   0.000000E+00
             8  -2.306741E+03   0.000000E+00
             9   1.588126E+03   0.000000E+00
            10  -9.231241E+03   0.000000E+00
